44 3 1
45 4 1
46 5 1
47 6 1
48 7 1
49 8 1
50 9 1
51 10 1
52 11 1
53 12 1
54 13 1
55 14 1
56 15 1
57 16 1
58 17 1
59 18 1
60 19 1
61 20 1
62 21 1
63 22 1
64 23 1
65 24 1
66 25 1
67 26 1
68 27 1
69 28 1
70 29 1
71 30 1
72 31 1
73 32 1
74 33 1
75 34 1
76 35 1
41 36 1
42 37 1
43 38 1
41 40 1
42 41 1
43 42 1
80 46 1
81 47 1
82 48 1
83 49 1
84 50 1
85 51 1
86 52 1
87 53 1
88 54 1
89 55 1
90 56 1
91 57 1
92 58 1
93 59 1
94 60 1
95 61 1
96 62 1
97 63 1
98 64 1
99 65 1
100 66 1
101 67 1
102 68 1
103 69 1
104 70 1
105 71 1
106 72 1
107 73 1
108 74 1
109 75 1
110 76 1
111 77 1
112 78 1
113 79 1
77 80 1
78 81 1
79 82 1
77 84 1
78 85 1
79 86 1
8 88 1
117 90 1
118 91 1
119 92 1
120 93 1
121 94 1
122 95 1
123 96 1
124 97 1
125 98 1
126 99 1
127 100 1
128 101 1
129 102 1
130 103 1
131 104 1
132 105 1
133 106 1
134 107 1
135 108 1
136 109 1
137 110 1
138 111 1
139 112 1
140 113 1
141 114 1
142 115 1
143 116 1
144 117 1
145 118 1
146 119 1
147 120 1
148 121 1
149 122 1
114 123 1
115 124 1
116 125 1
114 127 1
115 128 1
116 129 1
11 131 1
153 133 1
154 134 1
155 135 1
156 136 1
157 137 1
158 138 1
159 139 1
160 140 1
161 141 1
162 142 1
163 143 1
164 144 1
165 145 1
166 146 1
167 147 1
168 148 1
169 149 1
170 150 1
171 151 1
172 152 1
173 153 1
174 154 1
175 155 1
176 156 1
177 157 1
178 158 1
179 159 1
180 160 1
181 161 1
182 162 1
183 163 1
184 164 1
185 165 1
186 166 1
150 167 1
151 168 1
152 169 1
150 171 1
151 172 1
152 173 1
14 175 1
190 177 1
191 178 1
192 179 1
193 180 1
194 181 1
195 182 1
196 183 1
197 184 1
198 185 1
199 186 1
200 187 1
201 188 1
202 189 1
203 190 1
204 191 1
205 192 1
206 193 1
207 194 1
208 195 1
209 196 1
210 197 1
211 198 1
212 199 1
213 200 1
214 201 1
215 202 1
216 203 1
217 204 1
218 205 1
219 206 1
220 207 1
221 208 1
222 209 1
187 210 1
188 211 1
189 212 1
187 214 1
188 215 1
189 216 1
226 220 1
227 221 1
228 222 1
229 223 1
230 224 1
231 225 1
232 226 1
233 227 1
234 228 1
235 229 1
236 230 1
237 231 1
238 232 1
239 233 1
240 234 1
241 235 1
242 236 1
243 237 1
244 238 1
245 239 1
246 240 1
247 241 1
248 242 1
249 243 1
250 244 1
251 245 1
252 246 1
253 247 1
254 248 1
255 249 1
256 250 1
257 251 1
258 252 1
259 253 1
223 254 1
224 255 1
225 256 1
223 258 1
224 259 1
225 260 1
20 262 1
263 264 1
264 265 1
265 266 1
266 267 1
267 268 1
268 269 1
269 270 1
270 271 1
271 272 1
272 273 1
273 274 1
274 275 1
275 276 1
276 277 1
277 278 1
278 279 1
279 280 1
280 281 1
281 282 1
282 283 1
283 284 1
284 285 1
285 286 1
286 287 1
287 288 1
288 289 1
289 290 1
290 291 1
291 292 1
292 293 1
293 294 1
294 295 1
295 296 1
260 297 1
261 298 1
262 299 1
260 301 1
261 302 1
262 303 1
23 305 1
299 307 1
300 308 1
301 309 1
302 310 1
303 311 1
304 312 1
305 313 1
306 314 1
307 315 1
308 316 1
309 317 1
310 318 1
311 319 1
312 320 1
313 321 1
314 322 1
315 323 1
316 324 1
317 325 1
318 326 1
319 327 1
320 328 1
321 329 1
322 330 1
323 331 1
324 332 1
325 333 1
326 334 1
327 335 1
328 336 1
329 337 1
330 338 1
331 339 1
332 340 1
296 341 1
297 342 1
298 343 1
296 345 1
297 346 1
298 347 1
26 349 1
27 350 1
336 352 1
337 353 1
338 354 1
339 355 1
340 356 1
341 357 1
342 358 1
343 359 1
344 360 1
345 361 1
346 362 1
347 363 1
348 364 1
349 365 1
350 366 1
351 367 1
352 368 1
353 369 1
354 370 1
355 371 1
356 372 1
357 373 1
358 374 1
359 375 1
360 376 1
361 377 1
362 378 1
363 379 1
364 380 1
365 381 1
366 382 1
367 383 1
368 384 1
333 385 1
334 386 1
335 387 1
333 389 1
334 390 1
335 391 1
372 395 1
373 396 1
374 397 1
375 398 1
376 399 1
377 400 1
378 401 1
379 402 1
380 403 1
381 404 1
382 405 1
383 406 1
384 407 1
385 408 1
386 409 1
387 410 1
388 411 1
389 412 1
390 413 1
391 414 1
392 415 1
393 416 1
394 417 1
395 418 1
396 419 1
397 420 1
398 421 1
399 422 1
400 423 1
401 424 1
402 425 1
403 426 1
404 427 1
405 428 1
369 429 1
370 430 1
371 431 1
369 433 1
370 434 1
371 435 1
33 437 1
409 439 1
410 440 1
411 441 1
412 442 1
413 443 1
414 444 1
415 445 1
416 446 1
417 447 1
418 448 1
419 449 1
420 450 1
421 451 1
422 452 1
423 453 1
424 454 1
425 455 1
426 456 1
427 457 1
428 458 1
429 459 1
430 460 1
431 461 1
432 462 1
433 463 1
434 464 1
435 465 1
436 466 1
437 467 1
438 468 1
439 469 1
440 470 1
441 471 1
406 472 1
407 473 1
408 474 1
406 476 1
407 477 1
408 478 1
36 480 1
445 482 1
446 483 1
447 484 1
448 485 1
449 486 1
450 487 1
451 488 1
452 489 1
453 490 1
454 491 1
455 492 1
456 493 1
457 494 1
458 495 1
459 496 1
460 497 1
461 498 1
462 499 1
463 500 1
464 501 1
465 502 1
466 503 1
467 504 1
468 505 1
469 506 1
470 507 1
471 508 1
472 509 1
473 510 1
474 511 1
475 512 1
476 513 1
477 514 1
478 515 1
442 516 1
443 517 1
444 518 1
442 520 1
443 521 1
444 522 1
39 524 1
40 525 1

0 3 1
44 3 -1
0 4 2
45 4 -1
0 5 4
46 5 -1
0 6 8
47 6 -1
0 7 16
48 7 -1
0 8 32
49 8 -1
0 9 64
50 9 -1
0 10 128
51 10 -1
0 11 256
52 11 -1
0 12 512
53 12 -1
0 13 1024
54 13 -1
0 14 2048
55 14 -1
0 15 4096
56 15 -1
0 16 8192
57 16 -1
0 17 16384
58 17 -1
0 18 32768
59 18 -1
0 19 65536
60 19 -1
0 20 131072
61 20 -1
0 21 262144
62 21 -1
0 22 524288
63 22 -1
0 23 1048576
64 23 -1
0 24 2097152
65 24 -1
0 25 4194304
66 25 -1
0 26 8388608
67 26 -1
0 27 16777216
68 27 -1
0 28 33554432
69 28 -1
0 29 67108864
70 29 -1
0 30 134217728
71 30 -1
0 31 268435456
72 31 -1
0 32 536870912
73 32 -1
0 33 1073741824
74 33 -1
0 34 2147483648
75 34 -1
0 35 4294967296
76 35 -1
0 36 -1
41 36 1
0 37 -1
42 37 1
0 38 -1
43 38 1
0 40 8589934592
65 40 -1
64 40 -1
67 40 -1
66 40 -1
69 40 -1
68 40 -1
71 40 -1
70 40 -1
73 40 -1
72 40 -1
4 40 -1
2 40 1
62 40 -1
58 40 -1
59 40 -1
60 40 -1
61 40 -1
54 40 -1
55 40 -1
56 40 -1
57 40 -1
76 40 -1
63 40 -1
74 40 -1
75 40 -1
50 40 -1
51 40 -1
48 40 -1
49 40 -1
46 40 -1
47 40 -1
44 40 -1
45 40 -1
52 40 -1
53 40 -1
2 41 1
4 41 -1
0 42 8589934592
65 42 -1
64 42 -1
67 42 -1
66 42 -1
69 42 -1
68 42 -1
71 42 -1
70 42 -1
73 42 -1
72 42 -1
4 42 1
2 42 -1
62 42 -1
58 42 -1
59 42 -1
60 42 -1
61 42 -1
54 42 -1
55 42 -1
56 42 -1
57 42 -1
76 42 -1
63 42 -1
74 42 -1
75 42 -1
50 42 -1
51 42 -1
48 42 -1
49 42 -1
46 42 -1
47 42 -1
44 42 -1
45 42 -1
52 42 -1
53 42 -1
0 46 1
80 46 -1
0 47 2
81 47 -1
0 48 4
82 48 -1
0 49 8
83 49 -1
0 50 16
84 50 -1
0 51 32
85 51 -1
0 52 64
86 52 -1
0 53 128
87 53 -1
0 54 256
88 54 -1
0 55 512
89 55 -1
0 56 1024
90 56 -1
0 57 2048
91 57 -1
0 58 4096
92 58 -1
0 59 8192
93 59 -1
0 60 16384
94 60 -1
0 61 32768
95 61 -1
0 62 65536
96 62 -1
0 63 131072
97 63 -1
0 64 262144
98 64 -1
0 65 524288
99 65 -1
0 66 1048576
100 66 -1
0 67 2097152
101 67 -1
0 68 4194304
102 68 -1
0 69 8388608
103 69 -1
0 70 16777216
104 70 -1
0 71 33554432
105 71 -1
0 72 67108864
106 72 -1
0 73 134217728
107 73 -1
0 74 268435456
108 74 -1
0 75 536870912
109 75 -1
0 76 1073741824
110 76 -1
0 77 2147483648
111 77 -1
0 78 4294967296
112 78 -1
0 79 8589934592
113 79 -1
0 80 -1
77 80 1
0 81 -1
78 81 1
79 82 1
0 82 -1
99 84 -1
98 84 -1
0 84 17179869184
91 84 -1
90 84 -1
93 84 -1
92 84 -1
95 84 -1
94 84 -1
97 84 -1
96 84 -1
2 84 -1
7 84 1
108 84 -1
109 84 -1
104 84 -1
105 84 -1
106 84 -1
107 84 -1
100 84 -1
101 84 -1
102 84 -1
112 84 -1
111 84 -1
103 84 -1
110 84 -1
89 84 -1
88 84 -1
85 84 -1
84 84 -1
87 84 -1
86 84 -1
81 84 -1
80 84 -1
83 84 -1
82 84 -1
113 84 -1
2 85 -1
7 85 1
99 86 -1
98 86 -1
0 86 17179869184
91 86 -1
90 86 -1
93 86 -1
92 86 -1
95 86 -1
94 86 -1
97 86 -1
96 86 -1
2 86 1
7 86 -1
108 86 -1
109 86 -1
104 86 -1
105 86 -1
106 86 -1
107 86 -1
100 86 -1
101 86 -1
102 86 -1
112 86 -1
111 86 -1
103 86 -1
110 86 -1
89 86 -1
88 86 -1
85 86 -1
84 86 -1
87 86 -1
86 86 -1
81 86 -1
80 86 -1
83 86 -1
82 86 -1
113 86 -1
6 88 -1
0 90 1
117 90 -1
0 91 2
118 91 -1
0 92 4
119 92 -1
0 93 8
120 93 -1
0 94 16
121 94 -1
0 95 32
122 95 -1
0 96 64
123 96 -1
0 97 128
124 97 -1
0 98 256
125 98 -1
0 99 512
126 99 -1
0 100 1024
127 100 -1
0 101 2048
128 101 -1
0 102 4096
129 102 -1
0 103 8192
130 103 -1
0 104 16384
131 104 -1
0 105 32768
132 105 -1
0 106 65536
133 106 -1
0 107 131072
134 107 -1
0 108 262144
135 108 -1
0 109 524288
136 109 -1
0 110 1048576
137 110 -1
0 111 2097152
138 111 -1
0 112 4194304
139 112 -1
0 113 8388608
140 113 -1
0 114 16777216
141 114 -1
0 115 33554432
142 115 -1
0 116 67108864
143 116 -1
0 117 134217728
144 117 -1
0 118 268435456
145 118 -1
0 119 536870912
146 119 -1
0 120 1073741824
147 120 -1
0 121 2147483648
148 121 -1
0 122 4294967296
149 122 -1
0 123 -1
114 123 1
0 124 -1
115 124 1
0 125 -1
116 125 1
148 127 -1
147 127 -1
136 127 -1
135 127 -1
0 127 8589934592
130 127 -1
129 127 -1
128 127 -1
127 127 -1
134 127 -1
133 127 -1
132 127 -1
131 127 -1
149 127 -1
3 127 1
142 127 -1
145 127 -1
146 127 -1
143 127 -1
144 127 -1
141 127 -1
10 127 -1
139 127 -1
140 127 -1
137 127 -1
138 127 -1
124 127 -1
123 127 -1
122 127 -1
121 127 -1
120 127 -1
119 127 -1
118 127 -1
117 127 -1
126 127 -1
125 127 -1
3 128 1
10 128 -1
148 129 -1
147 129 -1
136 129 -1
135 129 -1
0 129 8589934592
130 129 -1
129 129 -1
128 129 -1
127 129 -1
134 129 -1
133 129 -1
132 129 -1
131 129 -1
149 129 -1
3 129 -1
142 129 -1
145 129 -1
146 129 -1
143 129 -1
144 129 -1
141 129 -1
10 129 1
139 129 -1
140 129 -1
137 129 -1
138 129 -1
124 129 -1
123 129 -1
122 129 -1
121 129 -1
120 129 -1
119 129 -1
118 129 -1
117 129 -1
126 129 -1
125 129 -1
9 131 -1
0 133 1
153 133 -1
0 134 2
154 134 -1
0 135 4
155 135 -1
0 136 8
156 136 -1
0 137 16
157 137 -1
0 138 32
158 138 -1
0 139 64
159 139 -1
0 140 128
160 140 -1
0 141 256
161 141 -1
0 142 512
162 142 -1
0 143 1024
163 143 -1
0 144 2048
164 144 -1
0 145 4096
165 145 -1
0 146 8192
166 146 -1
0 147 16384
167 147 -1
0 148 32768
168 148 -1
0 149 65536
169 149 -1
0 150 131072
170 150 -1
0 151 262144
171 151 -1
0 152 524288
172 152 -1
0 153 1048576
173 153 -1
0 154 2097152
174 154 -1
0 155 4194304
175 155 -1
0 156 8388608
176 156 -1
0 157 16777216
177 157 -1
0 158 33554432
178 158 -1
0 159 67108864
179 159 -1
0 160 134217728
180 160 -1
0 161 268435456
181 161 -1
0 162 536870912
182 162 -1
0 163 1073741824
183 163 -1
0 164 2147483648
184 164 -1
0 165 4294967296
185 165 -1
0 166 8589934592
186 166 -1
0 167 -1
150 167 1
0 168 -1
151 168 1
0 169 -1
152 169 1
0 171 17179869184
162 171 -1
161 171 -1
160 171 -1
159 171 -1
158 171 -1
157 171 -1
156 171 -1
155 171 -1
154 171 -1
153 171 -1
3 171 -1
180 171 -1
177 171 -1
178 171 -1
175 171 -1
176 171 -1
173 171 -1
174 171 -1
181 171 -1
182 171 -1
179 171 -1
13 171 1
184 171 -1
183 171 -1
186 171 -1
185 171 -1
166 171 -1
165 171 -1
164 171 -1
163 171 -1
170 171 -1
169 171 -1
168 171 -1
167 171 -1
172 171 -1
171 171 -1
13 172 1
3 172 -1
0 173 17179869184
162 173 -1
161 173 -1
160 173 -1
159 173 -1
158 173 -1
157 173 -1
156 173 -1
155 173 -1
154 173 -1
153 173 -1
3 173 1
180 173 -1
177 173 -1
178 173 -1
175 173 -1
176 173 -1
173 173 -1
174 173 -1
181 173 -1
182 173 -1
179 173 -1
13 173 -1
184 173 -1
183 173 -1
186 173 -1
185 173 -1
166 173 -1
165 173 -1
164 173 -1
163 173 -1
170 173 -1
169 173 -1
168 173 -1
167 173 -1
172 173 -1
171 173 -1
12 175 -1
0 177 1
190 177 -1
0 178 2
191 178 -1
0 179 4
192 179 -1
0 180 8
193 180 -1
0 181 16
194 181 -1
0 182 32
195 182 -1
0 183 64
196 183 -1
0 184 128
197 184 -1
0 185 256
198 185 -1
0 186 512
199 186 -1
0 187 1024
200 187 -1
0 188 2048
201 188 -1
0 189 4096
202 189 -1
0 190 8192
203 190 -1
0 191 16384
204 191 -1
0 192 32768
205 192 -1
0 193 65536
206 193 -1
0 194 131072
207 194 -1
0 195 262144
208 195 -1
0 196 524288
209 196 -1
0 197 1048576
210 197 -1
0 198 2097152
211 198 -1
0 199 4194304
212 199 -1
0 200 8388608
213 200 -1
0 201 16777216
214 201 -1
0 202 33554432
215 202 -1
0 203 67108864
216 203 -1
0 204 134217728
217 204 -1
0 205 268435456
218 205 -1
0 206 536870912
219 206 -1
0 207 1073741824
220 207 -1
0 208 2147483648
221 208 -1
0 209 4294967296
222 209 -1
0 210 -1
187 210 1
0 211 -1
188 211 1
0 212 -1
189 212 1
0 214 8589934592
16 214 -1
2 214 1
210 214 -1
211 214 -1
212 214 -1
213 214 -1
214 214 -1
215 214 -1
216 214 -1
217 214 -1
218 214 -1
219 214 -1
199 214 -1
198 214 -1
195 214 -1
194 214 -1
197 214 -1
196 214 -1
191 214 -1
190 214 -1
193 214 -1
192 214 -1
209 214 -1
208 214 -1
201 214 -1
200 214 -1
203 214 -1
202 214 -1
205 214 -1
204 214 -1
207 214 -1
206 214 -1
222 214 -1
221 214 -1
220 214 -1
2 215 1
16 215 -1
0 216 8589934592
16 216 1
2 216 -1
210 216 -1
211 216 -1
212 216 -1
213 216 -1
214 216 -1
215 216 -1
216 216 -1
217 216 -1
218 216 -1
219 216 -1
199 216 -1
198 216 -1
195 216 -1
194 216 -1
197 216 -1
196 216 -1
191 216 -1
190 216 -1
193 216 -1
192 216 -1
209 216 -1
208 216 -1
201 216 -1
200 216 -1
203 216 -1
202 216 -1
205 216 -1
204 216 -1
207 216 -1
206 216 -1
222 216 -1
221 216 -1
220 216 -1
0 220 1
226 220 -1
0 221 2
227 221 -1
0 222 4
228 222 -1
0 223 8
229 223 -1
0 224 16
230 224 -1
0 225 32
231 225 -1
0 226 64
232 226 -1
0 227 128
233 227 -1
0 228 256
234 228 -1
0 229 512
235 229 -1
0 230 1024
236 230 -1
0 231 2048
237 231 -1
0 232 4096
238 232 -1
0 233 8192
239 233 -1
0 234 16384
240 234 -1
0 235 32768
241 235 -1
0 236 65536
242 236 -1
0 237 131072
243 237 -1
0 238 262144
244 238 -1
0 239 524288
245 239 -1
0 240 1048576
246 240 -1
0 241 2097152
247 241 -1
0 242 4194304
248 242 -1
0 243 8388608
249 243 -1
0 244 16777216
250 244 -1
0 245 33554432
251 245 -1
0 246 67108864
252 246 -1
0 247 134217728
253 247 -1
0 248 268435456
254 248 -1
0 249 536870912
255 249 -1
0 250 1073741824
256 250 -1
0 251 2147483648
257 251 -1
0 252 4294967296
258 252 -1
0 253 8589934592
259 253 -1
0 254 -1
223 254 1
0 255 -1
224 255 1
0 256 -1
225 256 1
0 258 17179869184
19 258 1
256 258 -1
257 258 -1
258 258 -1
259 258 -1
226 258 -1
227 258 -1
228 258 -1
229 258 -1
230 258 -1
231 258 -1
232 258 -1
233 258 -1
234 258 -1
235 258 -1
2 258 -1
253 258 -1
252 258 -1
251 258 -1
250 258 -1
249 258 -1
248 258 -1
247 258 -1
246 258 -1
255 258 -1
254 258 -1
244 258 -1
245 258 -1
238 258 -1
239 258 -1
236 258 -1
237 258 -1
242 258 -1
243 258 -1
240 258 -1
241 258 -1
2 259 -1
19 259 1
0 260 17179869184
19 260 -1
256 260 -1
257 260 -1
258 260 -1
259 260 -1
226 260 -1
227 260 -1
228 260 -1
229 260 -1
230 260 -1
231 260 -1
232 260 -1
233 260 -1
234 260 -1
235 260 -1
2 260 1
253 260 -1
252 260 -1
251 260 -1
250 260 -1
249 260 -1
248 260 -1
247 260 -1
246 260 -1
255 260 -1
254 260 -1
244 260 -1
245 260 -1
238 260 -1
239 260 -1
236 260 -1
237 260 -1
242 260 -1
243 260 -1
240 260 -1
241 260 -1
18 262 -1
0 264 1
263 264 -1
0 265 2
264 265 -1
0 266 4
265 266 -1
0 267 8
266 267 -1
0 268 16
267 268 -1
0 269 32
268 269 -1
0 270 64
269 270 -1
0 271 128
270 271 -1
0 272 256
271 272 -1
0 273 512
272 273 -1
0 274 1024
273 274 -1
0 275 2048
274 275 -1
0 276 4096
275 276 -1
0 277 8192
276 277 -1
0 278 16384
277 278 -1
0 279 32768
278 279 -1
0 280 65536
279 280 -1
0 281 131072
280 281 -1
0 282 262144
281 282 -1
0 283 524288
282 283 -1
0 284 1048576
283 284 -1
0 285 2097152
284 285 -1
0 286 4194304
285 286 -1
0 287 8388608
286 287 -1
0 288 16777216
287 288 -1
0 289 33554432
288 289 -1
0 290 67108864
289 290 -1
0 291 134217728
290 291 -1
0 292 268435456
291 292 -1
0 293 536870912
292 293 -1
0 294 1073741824
293 294 -1
0 295 2147483648
294 295 -1
0 296 4294967296
295 296 -1
0 297 -1
260 297 1
0 298 -1
261 298 1
0 299 -1
262 299 1
0 301 8589934592
272 301 -1
271 301 -1
266 301 -1
265 301 -1
264 301 -1
263 301 -1
270 301 -1
269 301 -1
268 301 -1
267 301 -1
285 301 -1
286 301 -1
283 301 -1
284 301 -1
289 301 -1
290 301 -1
287 301 -1
288 301 -1
291 301 -1
292 301 -1
3 301 1
22 301 -1
294 301 -1
293 301 -1
282 301 -1
295 301 -1
280 301 -1
279 301 -1
278 301 -1
277 301 -1
276 301 -1
275 301 -1
274 301 -1
273 301 -1
281 301 -1
3 302 1
22 302 -1
0 303 8589934592
272 303 -1
271 303 -1
266 303 -1
265 303 -1
264 303 -1
263 303 -1
270 303 -1
269 303 -1
268 303 -1
267 303 -1
285 303 -1
286 303 -1
283 303 -1
284 303 -1
289 303 -1
290 303 -1
287 303 -1
288 303 -1
291 303 -1
292 303 -1
3 303 -1
22 303 1
294 303 -1
293 303 -1
282 303 -1
295 303 -1
280 303 -1
279 303 -1
278 303 -1
277 303 -1
276 303 -1
275 303 -1
274 303 -1
273 303 -1
281 303 -1
21 305 -1
0 307 1
299 307 -1
0 308 2
300 308 -1
0 309 4
301 309 -1
0 310 8
302 310 -1
0 311 16
303 311 -1
0 312 32
304 312 -1
0 313 64
305 313 -1
0 314 128
306 314 -1
0 315 256
307 315 -1
0 316 512
308 316 -1
0 317 1024
309 317 -1
0 318 2048
310 318 -1
0 319 4096
311 319 -1
0 320 8192
312 320 -1
0 321 16384
313 321 -1
0 322 32768
314 322 -1
0 323 65536
315 323 -1
0 324 131072
316 324 -1
0 325 262144
317 325 -1
0 326 524288
318 326 -1
0 327 1048576
319 327 -1
0 328 2097152
320 328 -1
0 329 4194304
321 329 -1
0 330 8388608
322 330 -1
0 331 16777216
323 331 -1
0 332 33554432
324 332 -1
0 333 67108864
325 333 -1
0 334 134217728
326 334 -1
0 335 268435456
327 335 -1
0 336 536870912
328 336 -1
0 337 1073741824
329 337 -1
0 338 2147483648
330 338 -1
0 339 4294967296
331 339 -1
0 340 8589934592
332 340 -1
0 341 -1
296 341 1
297 342 1
0 342 -1
0 343 -1
298 343 1
0 345 17179869184
332 345 -1
3 345 -1
329 345 -1
330 345 -1
331 345 -1
315 345 -1
316 345 -1
313 345 -1
314 345 -1
311 345 -1
312 345 -1
309 345 -1
310 345 -1
317 345 -1
318 345 -1
307 345 -1
308 345 -1
303 345 -1
304 345 -1
305 345 -1
306 345 -1
299 345 -1
300 345 -1
301 345 -1
302 345 -1
322 345 -1
321 345 -1
320 345 -1
319 345 -1
326 345 -1
325 345 -1
324 345 -1
323 345 -1
328 345 -1
327 345 -1
25 345 1
3 346 -1
25 346 1
0 347 17179869184
332 347 -1
3 347 1
329 347 -1
330 347 -1
331 347 -1
315 347 -1
316 347 -1
313 347 -1
314 347 -1
311 347 -1
312 347 -1
309 347 -1
310 347 -1
317 347 -1
318 347 -1
307 347 -1
308 347 -1
303 347 -1
304 347 -1
305 347 -1
306 347 -1
299 347 -1
300 347 -1
301 347 -1
302 347 -1
322 347 -1
321 347 -1
320 347 -1
319 347 -1
326 347 -1
325 347 -1
324 347 -1
323 347 -1
328 347 -1
327 347 -1
25 347 -1
24 349 -1
0 350 1
15 350 -1
0 352 1
336 352 -1
0 353 2
337 353 -1
0 354 4
338 354 -1
0 355 8
339 355 -1
0 356 16
340 356 -1
0 357 32
341 357 -1
0 358 64
342 358 -1
0 359 128
343 359 -1
0 360 256
344 360 -1
0 361 512
345 361 -1
0 362 1024
346 362 -1
0 363 2048
347 363 -1
0 364 4096
348 364 -1
0 365 8192
349 365 -1
0 366 16384
350 366 -1
0 367 32768
351 367 -1
0 368 65536
352 368 -1
0 369 131072
353 369 -1
0 370 262144
354 370 -1
0 371 524288
355 371 -1
0 372 1048576
356 372 -1
0 373 2097152
357 373 -1
0 374 4194304
358 374 -1
0 375 8388608
359 375 -1
0 376 16777216
360 376 -1
0 377 33554432
361 377 -1
0 378 67108864
362 378 -1
0 379 134217728
363 379 -1
0 380 268435456
364 380 -1
0 381 536870912
365 381 -1
0 382 1073741824
366 382 -1
0 383 2147483648
367 383 -1
0 384 4294967296
368 384 -1
0 385 -1
333 385 1
334 386 1
0 386 -1
0 387 -1
335 387 1
0 389 8589934592
359 389 -1
358 389 -1
357 389 -1
356 389 -1
363 389 -1
362 389 -1
361 389 -1
360 389 -1
365 389 -1
364 389 -1
2 389 1
352 389 -1
353 389 -1
350 389 -1
351 389 -1
348 389 -1
349 389 -1
346 389 -1
347 389 -1
354 389 -1
355 389 -1
366 389 -1
367 389 -1
368 389 -1
344 389 -1
345 389 -1
29 389 -1
340 389 -1
341 389 -1
342 389 -1
343 389 -1
336 389 -1
337 389 -1
338 389 -1
339 389 -1
2 390 1
29 390 -1
0 391 8589934592
359 391 -1
358 391 -1
357 391 -1
356 391 -1
363 391 -1
362 391 -1
361 391 -1
360 391 -1
365 391 -1
364 391 -1
2 391 -1
352 391 -1
353 391 -1
350 391 -1
351 391 -1
348 391 -1
349 391 -1
346 391 -1
347 391 -1
354 391 -1
355 391 -1
366 391 -1
367 391 -1
368 391 -1
344 391 -1
345 391 -1
29 391 1
340 391 -1
341 391 -1
342 391 -1
343 391 -1
336 391 -1
337 391 -1
338 391 -1
339 391 -1
0 395 1
372 395 -1
0 396 2
373 396 -1
0 397 4
374 397 -1
0 398 8
375 398 -1
0 399 16
376 399 -1
0 400 32
377 400 -1
0 401 64
378 401 -1
0 402 128
379 402 -1
0 403 256
380 403 -1
0 404 512
381 404 -1
0 405 1024
382 405 -1
0 406 2048
383 406 -1
0 407 4096
384 407 -1
0 408 8192
385 408 -1
0 409 16384
386 409 -1
0 410 32768
387 410 -1
0 411 65536
388 411 -1
0 412 131072
389 412 -1
0 413 262144
390 413 -1
0 414 524288
391 414 -1
0 415 1048576
392 415 -1
0 416 2097152
393 416 -1
0 417 4194304
394 417 -1
0 418 8388608
395 418 -1
0 419 16777216
396 419 -1
0 420 33554432
397 420 -1
0 421 67108864
398 421 -1
0 422 134217728
399 422 -1
0 423 268435456
400 423 -1
0 424 536870912
401 424 -1
0 425 1073741824
402 425 -1
0 426 2147483648
403 426 -1
0 427 4294967296
404 427 -1
0 428 8589934592
405 428 -1
0 429 -1
369 429 1
370 430 1
0 430 -1
0 431 -1
371 431 1
376 433 -1
377 433 -1
378 433 -1
379 433 -1
372 433 -1
373 433 -1
374 433 -1
375 433 -1
380 433 -1
381 433 -1
0 433 17179869184
2 433 -1
390 433 -1
391 433 -1
388 433 -1
389 433 -1
386 433 -1
387 433 -1
384 433 -1
385 433 -1
382 433 -1
383 433 -1
402 433 -1
403 433 -1
404 433 -1
405 433 -1
32 433 1
401 433 -1
400 433 -1
395 433 -1
394 433 -1
393 433 -1
392 433 -1
399 433 -1
398 433 -1
397 433 -1
396 433 -1
32 434 1
2 434 -1
376 435 -1
377 435 -1
378 435 -1
379 435 -1
372 435 -1
373 435 -1
374 435 -1
375 435 -1
380 435 -1
381 435 -1
0 435 17179869184
2 435 1
390 435 -1
391 435 -1
388 435 -1
389 435 -1
386 435 -1
387 435 -1
384 435 -1
385 435 -1
382 435 -1
383 435 -1
402 435 -1
403 435 -1
404 435 -1
405 435 -1
32 435 -1
401 435 -1
400 435 -1
395 435 -1
394 435 -1
393 435 -1
392 435 -1
399 435 -1
398 435 -1
397 435 -1
396 435 -1
31 437 -1
0 439 1
409 439 -1
0 440 2
410 440 -1
0 441 4
411 441 -1
0 442 8
412 442 -1
0 443 16
413 443 -1
0 444 32
414 444 -1
0 445 64
415 445 -1
0 446 128
416 446 -1
0 447 256
417 447 -1
0 448 512
418 448 -1
0 449 1024
419 449 -1
0 450 2048
420 450 -1
0 451 4096
421 451 -1
0 452 8192
422 452 -1
0 453 16384
423 453 -1
0 454 32768
424 454 -1
0 455 65536
425 455 -1
0 456 131072
426 456 -1
0 457 262144
427 457 -1
0 458 524288
428 458 -1
0 459 1048576
429 459 -1
0 460 2097152
430 460 -1
0 461 4194304
431 461 -1
0 462 8388608
432 462 -1
0 463 16777216
433 463 -1
0 464 33554432
434 464 -1
0 465 67108864
435 465 -1
0 466 134217728
436 466 -1
0 467 268435456
437 467 -1
0 468 536870912
438 468 -1
0 469 1073741824
439 469 -1
0 470 2147483648
440 470 -1
0 471 4294967296
441 471 -1
0 472 -1
406 472 1
0 473 -1
407 473 1
0 474 -1
408 474 1
0 476 8589934592
35 476 -1
427 476 -1
428 476 -1
421 476 -1
422 476 -1
419 476 -1
420 476 -1
425 476 -1
426 476 -1
423 476 -1
424 476 -1
3 476 1
439 476 -1
440 476 -1
441 476 -1
409 476 -1
410 476 -1
411 476 -1
412 476 -1
413 476 -1
414 476 -1
415 476 -1
416 476 -1
417 476 -1
418 476 -1
436 476 -1
435 476 -1
434 476 -1
433 476 -1
432 476 -1
431 476 -1
430 476 -1
429 476 -1
438 476 -1
437 476 -1
3 477 1
35 477 -1
0 478 8589934592
35 478 1
427 478 -1
428 478 -1
421 478 -1
422 478 -1
419 478 -1
420 478 -1
425 478 -1
426 478 -1
423 478 -1
424 478 -1
3 478 -1
439 478 -1
440 478 -1
441 478 -1
409 478 -1
410 478 -1
411 478 -1
412 478 -1
413 478 -1
414 478 -1
415 478 -1
416 478 -1
417 478 -1
418 478 -1
436 478 -1
435 478 -1
434 478 -1
433 478 -1
432 478 -1
431 478 -1
430 478 -1
429 478 -1
438 478 -1
437 478 -1
34 480 -1
0 482 1
445 482 -1
0 483 2
446 483 -1
0 484 4
447 484 -1
0 485 8
448 485 -1
0 486 16
449 486 -1
0 487 32
450 487 -1
0 488 64
451 488 -1
0 489 128
452 489 -1
0 490 256
453 490 -1
0 491 512
454 491 -1
0 492 1024
455 492 -1
0 493 2048
456 493 -1
0 494 4096
457 494 -1
0 495 8192
458 495 -1
0 496 16384
459 496 -1
0 497 32768
460 497 -1
0 498 65536
461 498 -1
0 499 131072
462 499 -1
0 500 262144
463 500 -1
0 501 524288
464 501 -1
0 502 1048576
465 502 -1
0 503 2097152
466 503 -1
0 504 4194304
467 504 -1
0 505 8388608
468 505 -1
0 506 16777216
469 506 -1
0 507 33554432
470 507 -1
0 508 67108864
471 508 -1
0 509 134217728
472 509 -1
0 510 268435456
473 510 -1
0 511 536870912
474 511 -1
0 512 1073741824
475 512 -1
0 513 2147483648
476 513 -1
0 514 4294967296
477 514 -1
0 515 8589934592
478 515 -1
0 516 -1
442 516 1
0 517 -1
443 517 1
0 518 -1
444 518 1
0 520 17179869184
3 520 -1
470 520 -1
469 520 -1
472 520 -1
471 520 -1
466 520 -1
465 520 -1
468 520 -1
467 520 -1
474 520 -1
473 520 -1
38 520 1
453 520 -1
454 520 -1
447 520 -1
448 520 -1
445 520 -1
446 520 -1
451 520 -1
452 520 -1
449 520 -1
450 520 -1
477 520 -1
478 520 -1
475 520 -1
476 520 -1
463 520 -1
464 520 -1
459 520 -1
460 520 -1
461 520 -1
462 520 -1
455 520 -1
456 520 -1
457 520 -1
458 520 -1
3 521 -1
38 521 1
0 522 17179869184
3 522 1
470 522 -1
469 522 -1
472 522 -1
471 522 -1
466 522 -1
465 522 -1
468 522 -1
467 522 -1
474 522 -1
473 522 -1
38 522 -1
453 522 -1
454 522 -1
447 522 -1
448 522 -1
445 522 -1
446 522 -1
451 522 -1
452 522 -1
449 522 -1
450 522 -1
477 522 -1
478 522 -1
475 522 -1
476 522 -1
463 522 -1
464 522 -1
459 522 -1
460 522 -1
461 522 -1
462 522 -1
455 522 -1
456 522 -1
457 522 -1
458 522 -1
37 524 -1
0 525 1
28 525 -1

0 1 1
1 1 -1
479 2 -1
482 2 1
4 2 -1
0 39 -1
43 39 1
42 39 1
41 39 1
5 43 -1
41 43 1
0 44 1
5 44 -1
6 44 -1
479 45 1
482 45 1
7 45 -1
79 83 1
0 83 -1
77 83 1
78 83 1
8 87 -1
77 87 1
6 88 1
9 88 -1
479 89 -1
10 89 -1
485 89 1
0 126 -1
114 126 1
115 126 1
116 126 1
114 130 1
11 130 -1
12 131 -1
9 131 1
13 132 -1
479 132 1
485 132 1
0 170 -1
150 170 1
151 170 1
152 170 1
150 174 1
14 174 -1
12 175 1
15 175 -1
480 176 -1
16 176 -1
483 176 1
0 213 -1
189 213 1
187 213 1
188 213 1
17 217 -1
187 217 1
17 218 -1
0 218 1
18 218 -1
480 219 1
19 219 -1
483 219 1
0 257 -1
225 257 1
224 257 1
223 257 1
20 261 -1
223 261 1
18 262 1
21 262 -1
480 263 -1
22 263 -1
486 263 1
0 300 -1
261 300 1
262 300 1
260 300 1
23 304 -1
260 304 1
24 305 -1
21 305 1
480 306 1
25 306 -1
486 306 1
297 344 1
0 344 -1
296 344 1
298 344 1
296 348 1
26 348 -1
27 349 -1
24 349 1
28 350 -1
15 350 1
481 351 -1
484 351 1
29 351 -1
334 388 1
0 388 -1
333 388 1
335 388 1
333 392 1
30 392 -1
0 393 1
31 393 -1
30 393 -1
32 394 -1
481 394 1
484 394 1
370 432 1
0 432 -1
369 432 1
371 432 1
369 436 1
33 436 -1
31 437 1
34 437 -1
487 438 1
481 438 -1
35 438 -1
0 475 -1
408 475 1
407 475 1
406 475 1
36 479 -1
406 479 1
37 480 -1
34 480 1
487 481 1
481 481 1
38 481 -1
0 519 -1
443 519 1
442 519 1
444 519 1
39 523 -1
442 523 1
37 524 1
40 524 -1
28 525 1
489 525 -1
488 526 -1
489 526 1

